;; unsat

(declare-const x1 sl.list.loc)
(declare-const x2 sl.list.loc)
(declare-const x3 sl.list.loc)
(declare-const x4 sl.list.loc)
(declare-const x5 sl.list.loc)
(declare-const x6 sl.list.loc)
(declare-const x7 sl.list.loc)
(declare-const x8 sl.list.loc)
(declare-const x9 sl.list.loc)
(declare-const x10 sl.list.loc)

(assert (sl.sepcon (sl.sepcon (sl.sepcon (sl.sepcon (sl.sepcon (sl.sepcon (sl.sepcon (sl.sepcon (sl.sepcon (sl.sepcon (sl.sepcon (sl.sepcon (sl.list.eq sl.list.null sl.list.null)
 (sl.list.neq x1 x6)
)
 (sl.list.neq x1 x7)
)
 (sl.list.neq x1 x10)
)
 (sl.list.neq x4 x8)
)
 (sl.list.neq x4 x7)
)
 (sl.list.neq x4 x9)
)
 (sl.list.neq x3 x8)
)
 (sl.list.neq x7 x10)
)
 (sl.list.neq x2 x6)
)
 (sl.list.neq x2 x3)
)
 (sl.list.neq x2 x7)
)
 (sl.sepcon (sl.sepcon (sl.sepcon (sl.sepcon (sl.sepcon (sl.sepcon (sl.sepcon (sl.list.seg x5 x7)
 (sl.list.seg x2 x5)
)
 (sl.list.seg x2 x10)
)
 (sl.list.seg x2 x1)
)
 (sl.list.seg x9 x1)
)
 (sl.list.seg x7 x6)
)
 (sl.list.seg x3 x10)
)
 (sl.list.seg x6 x9)
)
)
)

